words_hard_train/5148.qaiger
aag 119 24 0 1 95
2
4
8
16
20
30
34
38
56
64
74
82
86
106
110
118
134
146
150
174
182
186
212
216
239
6 3 5
10 7 8
12 6 9
14 11 13
18 17 3
22 18 21
24 23 4
26 25 7
28 23 5
32 29 31
36 20 34
40 36 38
42 37 39
44 41 43
46 32 45
48 27 47
50 14 49
52 15 48
54 43 34
58 54 56
60 55 57
62 59 61
66 63 65
68 53 66
70 51 69
72 61 34
76 72 74
78 73 75
80 77 79
84 81 83
88 13 86
90 9 87
92 6 90
94 89 93
96 84 94
98 70 97
100 85 95
102 99 101
104 79 34
108 105 106
112 109 111
114 104 107
116 112 115
120 93 118
122 5 119
124 122 90
126 124 3
128 121 127
130 116 128
132 103 131
136 127 134
138 126 135
140 137 139
142 78 107
144 143 34
148 145 146
152 149 151
154 144 147
156 152 155
158 141 157
160 133 159
162 117 129
164 160 163
166 140 156
168 165 167
170 142 147
172 171 34
176 173 175
178 172 174
180 177 179
184 181 183
188 139 186
190 138 187
192 189 191
194 185 193
196 169 195
198 184 192
200 197 199
202 135 187
204 124 202
206 204 2
208 201 207
210 176 34
214 211 213
218 204 217
220 205 216
222 219 221
224 214 222
226 208 225
228 200 206
230 224 228
232 227 231
234 215 223
236 234 229
238 232 237
i0 2 y2[0]
i1 2 y2[1]
i2 2 y2[2]
i3 1 x2[0]
i4 1 x1[0]
i5 1 x2[1]
i6 1 x1[7]
i7 1 x1[1]
i8 1 x1[2]
i9 1 x2[2]
i10 1 x1[3]
i11 1 x2[3]
i12 2 y2[3]
i13 1 x1[4]
i14 1 x2[4]
i15 2 y2[4]
i16 2 y2[5]
i17 1 x1[5]
i18 1 x2[5]
i19 1 x1[6]
i20 1 x2[6]
i21 2 y2[6]
i22 1 x2[7]
i23 2 y2[7]
o0 bv[0]
c
simplified
  >
    subtract
      1
      2 y2
    or
      1 x2
      abs
        1 x1
