words_hard_train/5148.qaiger.qdimacs
p cnf 119 286
a 32 37 8 41 10 73 75 106 15 17 19 53 87 55 91 28 0
e 1 2 3 4 5 6 7 9 11 12 13 14 16 18 20 21 22 23 24 25 26 27 29 30 31 33 34 35 36 38 39 40 42 43 44 45 46 47 48 49 50 51 52 54 56 57 58 59 60 61 62 63 64 65 66 67 68 69 70 71 72 74 76 77 78 79 80 81 82 83 84 85 86 88 89 90 92 93 94 95 96 97 98 99 100 101 102 103 104 105 107 108 109 110 111 112 113 114 115 116 117 118 119 0
1 2 3 0
-1 -3 0
-2 -3 0
3 -4 5 0
-3 -5 0
4 -5 0
-3 4 6 0
3 -6 0
-4 -6 0
5 6 7 0
-5 -7 0
-6 -7 0
8 1 9 0
-8 -9 0
-1 -9 0
-9 10 11 0
9 -11 0
-10 -11 0
11 -2 12 0
-11 -12 0
2 -12 0
12 3 13 0
-12 -13 0
-3 -13 0
11 2 14 0
-11 -14 0
-2 -14 0
14 15 16 0
-14 -16 0
-15 -16 0
-10 -17 18 0
10 -18 0
17 -18 0
-18 -19 20 0
18 -20 0
19 -20 0
18 19 21 0
-18 -21 0
-19 -21 0
20 21 22 0
-20 -22 0
-21 -22 0
-16 22 23 0
16 -23 0
-22 -23 0
13 23 24 0
-13 -24 0
-23 -24 0
-7 24 25 0
7 -25 0
-24 -25 0
7 -24 26 0
-7 -26 0
24 -26 0
21 -17 27 0
-21 -27 0
17 -27 0
-27 -28 29 0
27 -29 0
28 -29 0
27 28 30 0
-27 -30 0
-28 -30 0
29 30 31 0
-29 -31 0
-30 -31 0
31 32 33 0
-31 -33 0
-32 -33 0
26 -33 34 0
-26 -34 0
33 -34 0
25 34 35 0
-25 -35 0
-34 -35 0
30 -17 36 0
-30 -36 0
17 -36 0
-36 -37 38 0
36 -38 0
37 -38 0
36 37 39 0
-36 -39 0
-37 -39 0
38 39 40 0
-38 -40 0
-39 -40 0
40 41 42 0
-40 -42 0
-41 -42 0
6 -43 44 0
-6 -44 0
43 -44 0
4 43 45 0
-4 -45 0
-43 -45 0
-3 -45 46 0
3 -46 0
45 -46 0
44 46 47 0
-44 -47 0
-46 -47 0
-42 -47 48 0
42 -48 0
47 -48 0
-35 48 49 0
35 -49 0
-48 -49 0
42 47 50 0
-42 -50 0
-47 -50 0
49 50 51 0
-49 -51 0
-50 -51 0
39 -17 52 0
-39 -52 0
17 -52 0
52 -53 54 0
-52 -54 0
53 -54 0
54 55 56 0
-54 -56 0
-55 -56 0
-52 53 57 0
52 -57 0
-53 -57 0
-56 57 58 0
56 -58 0
-57 -58 0
46 -59 60 0
-46 -60 0
59 -60 0
2 59 61 0
-2 -61 0
-59 -61 0
-61 -45 62 0
61 -62 0
45 -62 0
-62 1 63 0
62 -63 0
-1 -63 0
60 63 64 0
-60 -64 0
-63 -64 0
-58 -64 65 0
58 -65 0
64 -65 0
51 65 66 0
-51 -66 0
-65 -66 0
63 -67 68 0
-63 -68 0
67 -68 0
-63 67 69 0
63 -69 0
-67 -69 0
68 69 70 0
-68 -70 0
-69 -70 0
-39 53 71 0
39 -71 0
-53 -71 0
71 -17 72 0
-71 -72 0
17 -72 0
72 -73 74 0
-72 -74 0
73 -74 0
74 75 76 0
-74 -76 0
-75 -76 0
-72 73 77 0
72 -77 0
-73 -77 0
-76 77 78 0
76 -78 0
-77 -78 0
70 78 79 0
-70 -79 0
-78 -79 0
66 79 80 0
-66 -80 0
-79 -80 0
58 64 81 0
-58 -81 0
-64 -81 0
-80 81 82 0
80 -82 0
-81 -82 0
-70 -78 83 0
70 -83 0
78 -83 0
82 83 84 0
-82 -84 0
-83 -84 0
-71 73 85 0
71 -85 0
-73 -85 0
85 -17 86 0
-85 -86 0
17 -86 0
86 87 88 0
-86 -88 0
-87 -88 0
-86 -87 89 0
86 -89 0
87 -89 0
88 89 90 0
-88 -90 0
-89 -90 0
90 91 92 0
-90 -92 0
-91 -92 0
69 -93 94 0
-69 -94 0
93 -94 0
-69 93 95 0
69 -95 0
-93 -95 0
94 95 96 0
-94 -96 0
-95 -96 0
92 96 97 0
-92 -97 0
-96 -97 0
84 97 98 0
-84 -98 0
-97 -98 0
-92 -96 99 0
92 -99 0
96 -99 0
98 99 100 0
-98 -100 0
-99 -100 0
67 93 101 0
-67 -101 0
-93 -101 0
-62 -101 102 0
62 -102 0
101 -102 0
-102 -1 103 0
102 -103 0
1 -103 0
100 103 104 0
-100 -104 0
-103 -104 0
-88 -17 105 0
88 -105 0
17 -105 0
105 106 107 0
-105 -107 0
-106 -107 0
-102 108 109 0
102 -109 0
-108 -109 0
102 -108 110 0
-102 -110 0
108 -110 0
109 110 111 0
-109 -111 0
-110 -111 0
-107 -111 112 0
107 -112 0
111 -112 0
-104 112 113 0
104 -113 0
-112 -113 0
-100 -103 114 0
100 -114 0
103 -114 0
-112 -114 115 0
112 -115 0
114 -115 0
113 115 116 0
-113 -116 0
-115 -116 0
107 111 117 0
-107 -117 0
-111 -117 0
-117 114 118 0
117 -118 0
-114 -118 0
-116 118 119 0
116 -119 0
-118 -119 0
-119 0
